13 98 68 11 32 81 2 17 60 24 73 70 59 77 80 36 79 52 76 28 34 64 88 22 45 7 65 75 41 40 33 42 84 82 15 0 94 83 90 19 5 58 56 14 23 49 66 46 25 12 4 48 85 38 29 87 63 6 71 18 3 8 93 97 10 57 91 27 55 51 39 95 96 86 30 89 26 47 16 99 54 92 67 9 61 37 43 69 78 50 53 1 35 44 62 21 20 72 31 74